342,67
477,6
334,229
261,406
512,529
681,916
713,613
814,474
718,520
681,586
282,277
721,326
744,343
694,380
850,529
868,501
681,856
641,486
786,261
727,110
342,160
710,410
753,354
742,21
847,-107
830,112
733,478
